problems/GracefulHelms/GracefulHelms-models/noch/O2/lingeling/model-n11-solution000001.eprime-solution
language ESSENCE' 1.0

letting colouring_Function1D be
        [32, 33, 6, 11, 14, 31, 2, 25, 7, 28, 13, 23, 3, 26, 21, 18, 5, 24, 1, 19, 20, 29, 0; int(0..22)]
letting edgeID_Function1D be
        [1, 27, 5, 3, 17, 29, 23, 18, 21, 15, 19, 9, 30, 20, 10, 4, 26, 22, 24, 12, 8, 16, 32, 33, 6, 11, 14, 31, 2, 25,
         7, 28, 13; int(0..32)]
